Version identifier: 22.1.1.0 | 2022-11-28 | 9160aff4d
CPXPARAM_ClockType                               1
CPXPARAM_Read_DataCheck                          1
CPXPARAM_Threads                                 1
CPXPARAM_TimeLimit                               7200
CPXPARAM_MIP_Tolerances_AbsMIPGap                0
CPXPARAM_MIP_Tolerances_MIPGap                   0
CPXPARAM_MIP_Tolerances_Integrality              0
Tried aggregator 2 times.
MIP Presolve eliminated 2943 rows and 1 columns.
MIP Presolve modified 1052 coefficients.
Aggregator did 500 substitutions.
Reduced MIP has 5256 rows, 2499 columns, and 16094 nonzeros.
Reduced MIP has 2499 binaries, 0 generals, 0 SOSs, and 0 indicators.
Presolve time = 0.03 sec. (21.06 ticks)
Found incumbent of value 156.000000 after 0.08 sec. (45.08 ticks)
Probing time = 0.01 sec. (3.70 ticks)
Tried aggregator 1 time.
Detecting symmetries...
MIP Presolve eliminated 201 rows and 2 columns.
Reduced MIP has 5055 rows, 2497 columns, and 15090 nonzeros.
Reduced MIP has 2497 binaries, 0 generals, 0 SOSs, and 0 indicators.
Presolve time = 0.02 sec. (16.44 ticks)
Probing time = 0.01 sec. (3.20 ticks)
Clique table members: 4719.
MIP emphasis: balance optimality and feasibility.
MIP search method: dynamic search.
Parallel mode: none, using 1 thread.
Root relaxation solution time = 0.07 sec. (38.86 ticks)

        Nodes                                         Cuts/
   Node  Left     Objective  IInf  Best Integer    Best Bound    ItCnt     Gap

*     0+    0                          156.0000      500.0000           220.51%
      0     0      500.0000   755      156.0000      500.0000      626  220.51%
      0     0      312.0000   794      156.0000    Cuts: 1312     3077  100.00%
      0     0      200.0000   752      156.0000     Cuts: 559     4341   28.21%
*     0+    0                          166.0000      200.0000            20.48%
      0     0      200.0000  1159      166.0000     Cuts: 131     4638   20.48%
*     0+    0                          168.0000      200.0000            19.05%
*     0+    0                          172.0000      200.0000            16.28%
*     0+    0                          178.0000      200.0000            12.36%
      0     0        cutoff            178.0000      200.0000     4638   12.36%
Detecting symmetries...
      0     2      200.0000   474      178.0000      200.0000     4638   12.36%
Elapsed time = 3.14 sec. (2106.08 ticks, tree = 0.01 MB, solutions = 5)
      8    10      200.0000   458      178.0000      200.0000     6939   12.36%
     11    13      200.0000   831      178.0000      200.0000     9373   12.36%
*    20+   20                          192.0000      200.0000             4.17%
     20    22      200.0000   539      192.0000      200.0000    10896    4.17%
     36    38      200.0000   840      192.0000      200.0000    12600    4.17%
     57    59      200.0000   752      192.0000      200.0000    13933    4.17%
     78    78      198.0000   727      192.0000      200.0000    15326    4.17%
*    80+   74                          198.0000      200.0000             1.01%
     97    90      200.0000  1018      198.0000      200.0000    16482    1.01%
    110   103      200.0000   937      198.0000      200.0000    17133    1.01%
    132   125      200.0000   898      198.0000      200.0000    18280    1.01%
    190   177      200.0000   860      198.0000      200.0000    22646    1.01%
Elapsed time = 9.51 sec. (6320.56 ticks, tree = 0.89 MB, solutions = 7)
*   230+    1                          200.0000      200.0000             0.00%

GUB cover cuts applied:  14
Clique cuts applied:  9
Cover cuts applied:  984
Mixed integer rounding cuts applied:  1
Zero-half cuts applied:  54
Gomory fractional cuts applied:  273

Root node processing (before b&c):
  Real time             =    3.13 sec. (2101.95 ticks)
Sequential b&c:
  Real time             =    6.77 sec. (4482.64 ticks)
                          ------------
Total (root+branch&cut) =    9.90 sec. (6584.59 ticks)
Solution is feasible.

---------------------
@@@ MIP_optimal
>>> Benchmark sw100-7.cnf k 2 OPT 200 TimeCost 10.590218544006348 TimeSolve 9.9833505153656 TimeRead 0.00758671760559082 TimeTrans 0.5992813110351562
